Version identifier: 22.1.0.0 | 2022-03-09 | 1a383f8ce
CPXPARAM_Threads                                 1
CPXPARAM_MIP_Strategy_VariableSelect             3
CPXPARAM_TimeLimit                               600
Tried aggregator 1 time.
Reduced MIP has 1825 rows, 10500 columns, and 84869 nonzeros.
Reduced MIP has 9000 binaries, 1500 generals, 0 SOSs, and 0 indicators.
Presolve time = 0.04 sec. (33.34 ticks)
Found incumbent of value 1.550000 after 0.11 sec. (84.11 ticks)
Tried aggregator 1 time.
Detecting symmetries...
Reduced MIP has 1825 rows, 10500 columns, and 84869 nonzeros.
Reduced MIP has 9000 binaries, 1500 generals, 0 SOSs, and 0 indicators.
Presolve time = 0.05 sec. (41.33 ticks)
Probing time = 0.01 sec. (8.15 ticks)
Clique table members: 301.
MIP emphasis: balance optimality and feasibility.
MIP search method: dynamic search.
Parallel mode: none, using 1 thread.
Root relaxation solution time = 1.66 sec. (1802.48 ticks)

        Nodes                                         Cuts/
   Node  Left     Objective  IInf  Best Integer    Best Bound    ItCnt     Gap

*     0+    0                            1.5500        0.0000           100.00%
      0     0        0.0000  1673        1.5500        0.0000     5729  100.00%
      0     0        0.0000   833        1.5500   ZeroHalf: 5     8093  100.00%
      0     0        0.0000   720        1.5500   ZeroHalf: 5    12173  100.00%
*     0+    0                            0.1640        0.0000           100.00%
*     0+    0                            0.0290        0.0000           100.00%
*     0+    0                            0.0270        0.0000           100.00%
*     0+    0                            0.0260        0.0000           100.00%
*     0+    0                            0.0190        0.0000           100.00%
      0     0  -1.00000e+75     0        0.0190        0.0000    12173  100.00%
Detecting symmetries...
      0     2        0.0000   435        0.0190        0.0000    12173  100.00%
Elapsed time = 41.31 sec. (44797.23 ticks, tree = 0.01 MB, solutions = 6)
      1     3        0.0000   926        0.0190        0.0000    23557  100.00%
      2     4        0.0000   792        0.0190        0.0000    29760  100.00%
      3     5        0.0000  1113        0.0190        0.0000    36297  100.00%
      4     6        0.0000   738        0.0190        0.0000    36448  100.00%
      5     7        0.0000   948        0.0190        0.0000    41290  100.00%
      6     8        0.0000   735        0.0190        0.0000    42844  100.00%
      7     9        0.0000   877        0.0190        0.0000    59319  100.00%
      8    10        0.0000  1804        0.0190        0.0000    61006  100.00%
      9    11        0.0000  1422        0.0190        0.0000    70460  100.00%
     11    13        0.0000   797        0.0190        0.0000    74985  100.00%
Elapsed time = 63.66 sec. (68949.11 ticks, tree = 0.14 MB, solutions = 6)
     12    14        0.0000   749        0.0190        0.0000    81163  100.00%
     14    16        0.0000   855        0.0190        0.0000    95549  100.00%
     15    17        0.0000   925        0.0190        0.0000   103330  100.00%
     16    18        0.0000   881        0.0190        0.0000   106786  100.00%
     17    19        0.0000  1272        0.0190        0.0000   113344  100.00%
     19    21        0.0000  1078        0.0190        0.0000   119178  100.00%
     21    23        0.0000  1222        0.0190        0.0000   129244  100.00%
     22    24        0.0000   938        0.0190        0.0000   135182  100.00%
     23    25        0.0000  1295        0.0190        0.0000   141048  100.00%
     25    27        0.0000   883        0.0190        0.0000   146013  100.00%
Elapsed time = 95.03 sec. (103574.13 ticks, tree = 0.32 MB, solutions = 6)
     26    28        0.0000  1301        0.0190        0.0000   153372  100.00%
     27    29        0.0000   949        0.0190        0.0000   158548  100.00%
     28    30        0.0000  1239        0.0190        0.0000   166652  100.00%
     30    32        0.0000   939        0.0190        0.0000   166890  100.00%
     31    33       -0.0000   924        0.0190        0.0000   170954  100.00%
     32    34       -0.0000   889        0.0190        0.0000   174838  100.00%
     34    36       -0.0000   793        0.0190        0.0000   182134  100.00%
     36    38       -0.0000   821        0.0190        0.0000   186629  100.00%
     37    39       -0.0000   781        0.0190        0.0000   190261  100.00%
     38    40        0.0000   854        0.0190        0.0000   193518  100.00%
Elapsed time = 123.67 sec. (133783.68 ticks, tree = 0.45 MB, solutions = 6)
     39    41       -0.0000   850        0.0190        0.0000   197464  100.00%
     40    42       -0.0000   668        0.0190        0.0000   200003  100.00%
     41    43        0.0000   753        0.0190        0.0000   207458  100.00%
     42    44       -0.0000   777        0.0190        0.0000   212013  100.00%
     43    45        0.0000   823        0.0190        0.0000   216826  100.00%
     44    46        0.0001  1104        0.0190        0.0000   223553  100.00%
     45    47       -0.0000   659        0.0190        0.0000   227552  100.00%
     46    48        0.0000   770        0.0190        0.0000   231590  100.00%
     47    49       -0.0000   875        0.0190        0.0000   237643  100.00%
     49    51       -0.0000   698        0.0190        0.0000   242923  100.00%
Elapsed time = 148.22 sec. (159459.39 ticks, tree = 0.60 MB, solutions = 6)
     50    52       -0.0000   833        0.0190        0.0000   249848  100.00%
     51    53       -0.0000   820        0.0190        0.0000   254380  100.00%
     52    54        0.0001  1045        0.0190        0.0000   263161  100.00%
     54    56       -0.0000   692        0.0190        0.0000   267309  100.00%
     55    57        0.0000   736        0.0190        0.0000   272383  100.00%
     56    58       -0.0000   714        0.0190        0.0000   276304  100.00%
     57    59       -0.0000   717        0.0190        0.0000   280930  100.00%
     58    60       -0.0000   758        0.0190        0.0000   285375  100.00%
     60    62       -0.0000   679        0.0190        0.0000   295433  100.00%
     62    64        0.0000   673        0.0190        0.0000   298630  100.00%
Elapsed time = 177.15 sec. (189279.78 ticks, tree = 0.70 MB, solutions = 6)
     64    66        0.0000   567        0.0190        0.0000   303661  100.00%
     65    67        0.0001   901        0.0190        0.0000   316703  100.00%
     67    69        0.0000   850        0.0190        0.0000   323412  100.00%
     68    70       -0.0000   554        0.0190        0.0000   330091  100.00%
     69    71        0.0000   482        0.0190        0.0000   333431  100.00%
     70    72       -0.0000   518        0.0190        0.0000   339975  100.00%
     71    73       -0.0000   843        0.0190        0.0000   345679  100.00%
     72    74        0.0001   859        0.0190        0.0000   350287  100.00%
     73    75       -0.0000   524        0.0190        0.0000   353360  100.00%
     75    77        0.0001   816        0.0190        0.0000   358876  100.00%
Elapsed time = 197.66 sec. (211110.05 ticks, tree = 0.90 MB, solutions = 6)
     76    78        0.0001   892        0.0190        0.0000   363812  100.00%
     77    79       -0.0000   853        0.0190        0.0000   366716  100.00%
     78    80       -0.0000   556        0.0190        0.0000   384736  100.00%
     79    81        0.0000   622        0.0190        0.0000   388591  100.00%
     80    82        0.0003   873        0.0190        0.0000   395605  100.00%
     81    83        0.0000   717        0.0190        0.0000   400704  100.00%
     82    84        0.0002   911        0.0190        0.0000   405626  100.00%
     84    86        0.0003   841        0.0190        0.0000   410707  100.00%
     85    87        0.0000   823        0.0190        0.0000   412687  100.00%
     87    89       -0.0000   840        0.0190        0.0000   414310  100.00%
Elapsed time = 214.71 sec. (229421.07 ticks, tree = 1.07 MB, solutions = 6)
     88    90        0.0003   840        0.0190        0.0000   417631  100.00%
     90    92       -0.0000   760        0.0190        0.0000   420819  100.00%
     92    94        0.0005   808        0.0190        0.0000   425967  100.00%
     94    96        0.0000   683        0.0190        0.0000   427423  100.00%
     96    98       -0.0000   663        0.0190        0.0000   430352  100.00%
     98   100        0.0005   692        0.0190        0.0000   433642  100.00%
    100   102        0.0006   794        0.0190        0.0000   436028  100.00%
    102   104        0.0006   765        0.0190        0.0000   439276  100.00%
    105   107        0.0006   661        0.0190        0.0000   443424  100.00%
    106   108        0.0001   769        0.0190        0.0000   446771  100.00%
Elapsed time = 230.89 sec. (247703.48 ticks, tree = 1.41 MB, solutions = 6)
    108   110        0.0004   774        0.0190        0.0000   450941  100.00%
    110   112        0.0004   683        0.0190        0.0000   453655  100.00%
    112   114       -0.0000   788        0.0190        0.0000   455437  100.00%
    115   117        0.0000   702        0.0190        0.0000   456420  100.00%
    116   118        0.0003   782        0.0190        0.0000   459368  100.00%
    118   120        0.0003   649        0.0190        0.0000   463136  100.00%
    121   123        0.0005   722        0.0190        0.0000   467144  100.00%
    122   124        0.0006   685        0.0190        0.0000   469555  100.00%
    125   127        0.0005   526        0.0190        0.0000   473748  100.00%
    127   129        0.0007   756        0.0190        0.0000   476930  100.00%
Elapsed time = 247.01 sec. (265599.89 ticks, tree = 1.81 MB, solutions = 6)
    128   130        0.0006   675        0.0190        0.0000   479685  100.00%
    131   133        0.0001   661        0.0190        0.0000   483668  100.00%
    133   135        0.0000   710        0.0190        0.0000   485880  100.00%
    135   137        0.0006   755        0.0190        0.0000   490601  100.00%
    137   139        0.0000   675        0.0190        0.0000   492672  100.00%
    138   140        0.0005   655        0.0190        0.0000   495513  100.00%
    140   142        0.0000   680        0.0190        0.0000   497497  100.00%
    142   144       -0.0000   686        0.0190        0.0000   499598  100.00%
    144   146        0.0000   629        0.0190        0.0000   501343  100.00%
    150   152        0.0004   739        0.0190        0.0000   511560  100.00%
Elapsed time = 264.57 sec. (285148.90 ticks, tree = 2.21 MB, solutions = 6)
    158   160        0.0000   628        0.0190        0.0000   519456  100.00%
    161   163       -0.0000   606        0.0190        0.0000   523045  100.00%
    167   169        0.0009   588        0.0190        0.0000   532583  100.00%
    173   175        0.0000   520        0.0190        0.0000   541331  100.00%
    180   182        0.0009   616        0.0190        0.0000   551838  100.00%
    187   189       -0.0000   475        0.0190        0.0000   560814  100.00%
    192   194        0.0009   520        0.0190        0.0000   570773  100.00%
    198   200        0.0000   471        0.0190        0.0000   580267  100.00%
    203   205        0.0005   611        0.0190        0.0000   586289  100.00%
    212   214        0.0003   492        0.0190        0.0000   594522  100.00%
Elapsed time = 303.16 sec. (329068.60 ticks, tree = 3.35 MB, solutions = 6)
    219   221        0.0020   640        0.0190        0.0000   603815  100.00%
    226   228        0.0010   537        0.0190        0.0000   610080  100.00%
    236   238        0.0015   483        0.0190        0.0000   619470  100.00%
    243   245        0.0013   544        0.0190        0.0000   627454  100.00%
    253   255        0.0005   590        0.0190        0.0000   633940  100.00%
    260   262        0.0005   543        0.0190        0.0000   640525  100.00%
    269   271        0.0005   537        0.0190        0.0000   647756  100.00%
    277   279        0.0005   545        0.0190        0.0000   655745  100.00%
    286   288        0.0005   556        0.0190        0.0000   662698  100.00%
    293   295        0.0005   430        0.0190        0.0000   671561  100.00%
Elapsed time = 341.90 sec. (372439.85 ticks, tree = 4.82 MB, solutions = 6)
    301   303        0.0015   409        0.0190        0.0000   683159  100.00%
    309   311        0.0040   622        0.0190        0.0000   693625  100.00%
    319   321        0.0057   599        0.0190        0.0000   700603  100.00%
    329   331        0.0053   496        0.0190        0.0000   708294  100.00%
    340   342        0.0070   441        0.0190        0.0000   716937  100.00%
    351   353        0.0078   540        0.0190        0.0000   724354  100.00%
    363   365        0.0075   491        0.0190        0.0000   730653  100.00%
    375   377        0.0100   408        0.0190        0.0000   738031  100.00%
    387   389        0.0120   444        0.0190        0.0000   745971  100.00%
    397   399        0.0150   376        0.0190        0.0000   757028  100.00%
Elapsed time = 379.03 sec. (413279.14 ticks, tree = 6.71 MB, solutions = 6)
    408   410        0.0135   361        0.0190        0.0000   765291  100.00%
    421   423        0.0155   194        0.0190        0.0000   774567  100.00%
    439   436        0.0180   272        0.0190        0.0000   785213  100.00%
    456   442        0.0008   633        0.0190        0.0000   796080  100.00%
    462   448        0.0001   429        0.0190        0.0000   805417  100.00%
    468   454        0.0001   453        0.0190        0.0000   814072  100.00%
    474   460        0.0003   559        0.0190        0.0000   823066  100.00%
    480   466        0.0005   408        0.0190        0.0000   830820  100.00%
    485   471        0.0005   420        0.0190        0.0000   840703  100.00%
    490   476        0.0010   578        0.0190        0.0000   851054  100.00%
Elapsed time = 415.65 sec. (454112.78 ticks, tree = 8.11 MB, solutions = 6)
    497   483        0.0005   423        0.0190        0.0000   860653  100.00%
    503   489        0.0015   486        0.0190        0.0000   870561  100.00%
    511   497        0.0024   505        0.0190        0.0000   880551  100.00%
    520   506        0.0016   549        0.0190        0.0000   889312  100.00%
*   526+  483                            0.0160        0.0000           100.00%
    526   485       -0.0000   389        0.0160        0.0000   897394  100.00%
*   527+  476                            0.0150        0.0000           100.00%
    527   478        0.0000   429        0.0150        0.0000   899653  100.00%
    528   479        0.0000   528        0.0150        0.0000   901171  100.00%
    538   489        0.0004   627        0.0150        0.0000   907343  100.00%
    547   498        0.0005   491        0.0150        0.0000   916348  100.00%
    557   508        0.0005   537        0.0150        0.0000   923615  100.00%
Elapsed time = 528.00 sec. (560232.14 ticks, tree = 8.68 MB, solutions = 8)
    565   516        0.0006   482        0.0150        0.0000   931306  100.00%
    574   525        0.0006   486        0.0150        0.0000   939721  100.00%
    583   534        0.0006   519        0.0150        0.0000   946580  100.00%
    591   542        0.0007   511        0.0150        0.0000   954114  100.00%
Starting limited solution polishing.
*   600+  536                            0.0140        0.0000           100.00%
*   600+  530                            0.0130        0.0000           100.00%
    600   532        0.0010   514        0.0130        0.0000   960064  100.00%
    609   541        0.0013   569        0.0130        0.0000   966922  100.00%
    619   551        0.0013   553        0.0130        0.0000   973845  100.00%
    630   562        0.0015   608        0.0130        0.0000   979756  100.00%
    640   572        0.0021   559        0.0130        0.0000   986154  100.00%
    649   581        0.0022   551        0.0130        0.0000   994394  100.00%
Elapsed time = 589.48 sec. (621820.25 ticks, tree = 10.02 MB, solutions = 10)
    660   592        0.0027   455        0.0130        0.0000  1000627  100.00%
    672   604        0.0028   550        0.0130        0.0000  1006673  100.00%

Zero-half cuts applied:  10

Root node processing (before b&c):
  Real time             =   41.25 sec. (44747.70 ticks)
Sequential b&c:
  Real time             =  558.75 sec. (588494.68 ticks)
                          ------------
Total (root+branch&cut) =  600.00 sec. (633242.37 ticks)
Primal number of violations:	0.013
Dual number of violations:	0
Status:	Feasible
Time:	599.97
Sequence:
	21
	5
	17
	5
	18
	3
	20
	5
	14
	8
	18
	0
	18
	8
	14
	5
	13
	10
	12
	5
	23
	0
	20
	8
	12
	5
	15
	5
	18
	2
	20
	7
	16
	5
	18
	4
	19
	5
	17
	5
	12
	11
	18
	1
	18
	8
	15
	5
	12
	8
	20
	0
	18
	10
	12
	5
	7
	16
	5
	20
	2
	20
	6
	12
	8
	20
	14
	9
	5
	12
	5
	17
	6
	18
	4
	18
	5
	13
	10
	18
	1
	18
	9
	14
	5
	17
	5
	19
	1
	18
	5
	14
	9
	18
	12
	5
	14
	7
	16
	5
	18
	1
	24
	5
	12
	5
	17
	7
	5
	12
	5
	23
	0
	18
	10
	12
	5
	19
	5
	17
	5
	12
	6
	20
	4
	18
	5
	13
	5
	20
	2
	18
	7
	16
	5
	18
	4
	21
	5
	16
	5
	20
	3
	20
	5
	12
	8
	20
	0
	23
	5
	12
	10
	18
	0
	20
	8
	12
	5
	22
	1
	20
	5
	12
	9
	18
	1
	18
	10
	13
	5
	20
	2
	20
	6
	12
	8
	5
	14
	11
	5
	12
	8
	20
	0
	20
	8
	12
	5
	21
	2
	20
	5
	16
	7
	18
	4
	18
	5
	15
	8
	12
	20
	6
	14
	8
	5
	14
	8
	7
	12
	8
	20
	12
	24
	5
	12
	10
	18
	6
	12
	10
	20
	12
	9
	18
	1
	18
	10
	12
	6
	10
	12
	5
	14
	9
	14
	5
	12
	8
	7
	14
	8
	5
	12
	11
	18
	14
	8
	5
	13
	8
	20
	5
	17
	5
	19
	2
	20
	5
	17
	5
	19
	2
	20
	5
	16
	7
	18
	4
	18
	5
	14
	9
	18
	14
	8
	20
	0
	18
	10
	12
	5
	19
	10
	12
	5
	20
	3
	20
	5
	16
	5
	19
	4
	18
	5
	17
	5
	21
